c CNF formula generated by generate_input.py
c Number of variables: 50
c Number of clauses: 50
c Clause length: random between 1 and 4
p cnf 50 50
41 36 0
32 -11 -27 10 0
6 0
4 6 -18 34 0
-22 -10 5 0
45 0
9 37 -23 0
-5 41 8 -2 0
-20 45 48 0
25 -12 7 3 0
-48 -42 -29 -5 0
2 17 -46 0
-1 0
25 34 0
-2 -9 -12 0
23 28 -22 -40 0
-43 0
3 0
-13 25 -49 -40 0
-17 0
-39 27 0
-34 33 0
11 0
21 0
-43 0
-46 0
-7 -50 31 42 0
-9 0
-48 23 0
-12 -30 36 -37 0
26 -2 -31 0
-47 0
39 6 -5 -26 0
-28 22 0
16 -1 -26 0
1 8 30 0
-42 4 15 -25 0
-42 47 0
5 -35 -4 -36 0
15 49 7 0
5 47 0
10 0
-42 -38 15 0
33 0
49 -3 29 0
-37 -17 0
19 0
-31 -46 0
33 0
-13 0
